1612162800
1612195200
1612248000
1612197000
1612197900
1612282260
1612334700
1612366200
1612422000
1612453140
1612507380
1612539000
1612766700
1612801920
1612853580
1612884660
1612940400
1612971300
1613026800
1613057580
1613113200
1613143800
1613232000
1613233800
1613145600
1613147400
1613151900
1613154600
1613372400
1613405040
1613458800
1613489400
1613545200
1613576280
1613631600
1613662320
1613718000
1613748600
1613977200
1614007800
1614007800
1614009660
1614063600
1614094620
1614150000
1614182460
1614183300
1614184200
1614236400
1614267000
1614322800
1614353460
